RT is False
Default write of storage_offers_DA.csv just to have a file (but constraint should be inactive)
Reading model...
...model read.
creating competitive generators file...
...competitive generators recorded.
Loading data...
.. day-ahead data with real-time VRE data read.
Compiling instance...
...instance created.
Creating Offer Mitigation (model will solve as dispatch if TRUE)...
Solving...

Welcome to IBM(R) ILOG(R) CPLEX(R) Interactive Optimizer 12.9.0.0
  with Simplex, Mixed Integer & Barrier Optimizers
5725-A06 5725-A29 5724-Y48 5724-Y49 5724-Y54 5724-Y55 5655-Y21
Copyright IBM Corp. 1988, 2019.  All Rights Reserved.

Type 'help' for a list of available commands.
Type 'help' followed by a command name for more
information on commands.

CPLEX> Logfile 'cplex.log' closed.
Logfile 'C:\Users\llavin\Desktop\test919\logs\tmp3hdjnzao.cplex.log' open.
CPLEX> New value for parallel optimization mode: -1
CPLEX> New value for mixed integer optimality gap tolerance: 0.01
CPLEX> New value for integrality tolerance: 1e-09
CPLEX> New value for feasibility tolerance: 0.01
CPLEX> New value for deterministic time limit in ticks: 75000
CPLEX> Problem 'C:\Users\llavin\Desktop\test919\logs\tmpxmyriv9f.pyomo.lp' read.
Read time = 0.05 sec. (3.04 ticks)
CPLEX> Problem name         : C:\Users\llavin\Desktop\test919\logs\tmpxmyriv9f.pyomo.lp
Objective sense      : Minimize
Variables            :   26081  [Nneg: 1,  Box: 21616,  Free: 4464]
Objective nonzeros   :    2496
Linear constraints   :   27515  [Less: 14006,  Greater: 4416,  Equal: 9093]
  Nonzeros           :   89219
  RHS nonzeros       :   12267

Variables            : Min LB: -5000.000        Max UB: 1000000.       
Objective nonzeros   : Min   : 15.73158         Max   : 124.0997       
Linear constraints   :
  Nonzeros           : Min   : 0.8500000        Max   : 3000.000       
  RHS nonzeros       : Min   : 0.05833333       Max   : 5000.000       
CPLEX> CPXPARAM_Parallel                                -1
CPXPARAM_Simplex_Tolerances_Feasibility          0.01
CPXPARAM_DetTimeLimit                            75000
CPXPARAM_MIP_Tolerances_MIPGap                   0.01
CPXPARAM_MIP_Tolerances_Integrality              1.0000000000000001e-09
Parallel mode: opportunistic, using up to 32 threads for concurrent optimization.
Tried aggregator 1 time.
LP Presolve eliminated 21377 rows and 15486 columns.
Aggregator did 742 substitutions.
Reduced LP has 5396 rows, 9853 columns, and 31798 nonzeros.
Presolve time = 0.06 sec. (30.20 ticks)
Symmetry aggregator did 5565 additional substitutions.

Iteration log . . .
Iteration:     1   Dual objective     =             0.000000
Perturbation started.
Iteration:   101   Dual objective     =             0.000000
Iteration:   335   Dual objective     =             1.404495
Iteration:   595   Dual objective     =             1.978694
Iteration:   852   Dual objective     =             2.116745
Iteration:  1066   Dual objective     =             2.232577
Iteration:  1347   Dual objective     =             2.278775
Iteration:  1602   Dual objective     =             2.306456
Iteration:  1822   Dual objective     =             2.329633
Iteration:  2041   Dual objective     =             2.353794
Iteration:  2226   Dual objective     =             2.364229
Iteration:  2457   Dual objective     =         13238.399100
Iteration:  2743   Dual objective     =         22087.836926
Iteration:  3141   Dual objective     =         22456.398974
Removing perturbation.
Dual superbasis not built.
Using devex.

Primal simplex solved model.


Primal simplex - Optimal:  Objective =  2.2454010881e+04
Solution time =    0.16 sec.  Iterations = 1675 (1166)
Deterministic time = 78.16 ticks  (497.85 ticks/sec)

CPLEX> Solution written to file 'C:\Users\llavin\Desktop\test919\logs\tmputqaggyt.cplex.sol'.
CPLEX> Exporting results... 
...storage offer mitigation file created
Converting model to MPEC...
...converted
NOTE: initial MIP solve with only storage competitive to get feasible solution
Solving...

Welcome to IBM(R) ILOG(R) CPLEX(R) Interactive Optimizer 12.9.0.0
  with Simplex, Mixed Integer & Barrier Optimizers
5725-A06 5725-A29 5724-Y48 5724-Y49 5724-Y54 5724-Y55 5655-Y21
Copyright IBM Corp. 1988, 2019.  All Rights Reserved.

Type 'help' for a list of available commands.
Type 'help' followed by a command name for more
information on commands.

CPLEX> Logfile 'cplex.log' closed.
Logfile 'C:\Users\llavin\Desktop\test919\logs\tmpgoker_sx.cplex.log' open.
CPLEX> New value for parallel optimization mode: -1
CPLEX> New value for mixed integer optimality gap tolerance: 0.01
CPLEX> New value for integrality tolerance: 1e-09
CPLEX> New value for feasibility tolerance: 0.01
CPLEX> New value for deterministic time limit in ticks: 75000
CPLEX> Problem 'C:\Users\llavin\Desktop\test919\logs\tmp_rfnckt2.pyomo.lp' read.
Read time = 0.23 sec. (14.78 ticks)
CPLEX> Problem name         : C:\Users\llavin\Desktop\test919\logs\tmp_rfnckt2.pyomo.lp
Objective sense      : Maximize
Variables            :   53805  [Nneg: 1,  Box: 22000,  Free: 4464,
                                 Binary: 27340]
Objective nonzeros   :    9025
Linear constraints   :  123205  [Less: 41346,  Greater: 59096,  Equal: 22763]
  Nonzeros           :  291749
  RHS nonzeros       :   67407

Variables            : Min LB: -5000.000        Max UB: 1000000.       
Objective nonzeros   : Min   : 0.05833333       Max   : 2500.000       
Linear constraints   :
  Nonzeros           : Min   : 0.05833333       Max   : 1000000.       
  RHS nonzeros       : Min   : 0.05833333       Max   : 1000000.       
CPLEX> CPXPARAM_Parallel                                -1
CPXPARAM_Simplex_Tolerances_Feasibility          0.01
CPXPARAM_DetTimeLimit                            75000
CPXPARAM_MIP_Tolerances_MIPGap                   0.01
CPXPARAM_MIP_Tolerances_Integrality              1.0000000000000001e-09
Tried aggregator 3 times.
MIP Presolve eliminated 88605 rows and 18931 columns.
MIP Presolve added 3379 rows and 0 columns.
MIP Presolve modified 24835 coefficients.
Aggregator did 12995 substitutions.
Reduced MIP has 24984 rows, 21325 columns, and 71275 nonzeros.
Reduced MIP has 8433 binaries, 0 generals, 0 SOSs, and 0 indicators.
Presolve time = 0.28 sec. (173.63 ticks)
Probing fixed 393 vars, tightened 2866 bounds.
Probing time = 1.23 sec. (897.95 ticks)
Tried aggregator 2 times.
MIP Presolve eliminated 891 rows and 790 columns.
MIP Presolve modified 2209 coefficients.
Aggregator did 42 substitutions.
Reduced MIP has 24051 rows, 20493 columns, and 68577 nonzeros.
Reduced MIP has 8038 binaries, 0 generals, 0 SOSs, and 0 indicators.
Presolve time = 0.09 sec. (66.93 ticks)
Probing fixed 0 vars, tightened 2 bounds.
Probing time = 0.06 sec. (26.64 ticks)
Clique table members: 6673.
MIP emphasis: balance optimality and feasibility.
MIP search method: dynamic search.
Parallel mode: opportunistic, using up to 32 threads.
Root relaxation solution time = 0.44 sec. (548.30 ticks)

        Nodes                                         Cuts/
   Node  Left     Objective  IInf  Best Integer    Best Bound    ItCnt     Gap

      0     0        0.0000   674                      0.0000     6258         
*     0+    0                            0.0000        0.0000             0.00%
      0     0        cutoff              0.0000        0.0000     6258    0.00%
Elapsed time = 2.94 sec. (2174.45 ticks, tree = 0.01 MB, solutions = 1)

Root node processing (before b&c):
  Real time             =    2.95 sec. (2176.39 ticks)
Parallel b&c, 32 threads:
  Real time             =    0.00 sec. (0.00 ticks)
  Sync time (average)   =    0.00 sec.
  Wait time (average)   =    0.00 sec.
                          ------------
Total (root+branch&cut) =    2.95 sec. (2176.39 ticks)

Solution pool: 1 solution saved.

MIP - Integer optimal solution:  Objective =  1.2862528820e-09
Solution time =    2.98 sec.  Iterations = 6258  Nodes = 0
Deterministic time = 2176.55 ticks  (729.16 ticks/sec)

CPLEX> Incumbent solution written to file 'C:\Users\llavin\Desktop\test919\logs\tmpiuayzi1z.cplex.sol'.
CPLEX> NOTE: no warmstart specified for MIP iteration, default behavior is true
NOTE: resolving with all competitive generators using storage-only solution to warmstart
Solving...

Welcome to IBM(R) ILOG(R) CPLEX(R) Interactive Optimizer 12.9.0.0
  with Simplex, Mixed Integer & Barrier Optimizers
5725-A06 5725-A29 5724-Y48 5724-Y49 5724-Y54 5724-Y55 5655-Y21
Copyright IBM Corp. 1988, 2019.  All Rights Reserved.

Type 'help' for a list of available commands.
Type 'help' followed by a command name for more
information on commands.

CPLEX> Logfile 'cplex.log' closed.
Logfile 'C:\Users\llavin\Desktop\test919\logs\tmpitff4smx.cplex.log' open.
CPLEX> New value for parallel optimization mode: -1
CPLEX> New value for mixed integer optimality gap tolerance: 0.01
CPLEX> New value for integrality tolerance: 1e-09
CPLEX> New value for feasibility tolerance: 0.01
CPLEX> New value for deterministic time limit in ticks: 75000
CPLEX> Problem 'C:\Users\llavin\Desktop\test919\logs\tmp6nqp74q_.pyomo.lp' read.
Read time = 0.25 sec. (14.81 ticks)
CPLEX> MIP start file 'C:\Users\llavin\Desktop\test919\logs\tmpnm78du6q.cplex.mst' read.
CPLEX> Problem name         : C:\Users\llavin\Desktop\test919\logs\tmp6nqp74q_.pyomo.lp
Objective sense      : Maximize
Variables            :   54525  [Nneg: 1,  Box: 22720,  Free: 4464,
                                 Binary: 27340]
Objective nonzeros   :    9721
Linear constraints   :  123205  [Less: 41346,  Greater: 59096,  Equal: 22763]
  Nonzeros           :  291749
  RHS nonzeros       :   67407

Variables            : Min LB: -5000.000        Max UB: 1000000.       
Objective nonzeros   : Min   : 0.05833333       Max   : 2500.000       
Linear constraints   :
  Nonzeros           : Min   : 0.05833333       Max   : 1000000.       
  RHS nonzeros       : Min   : 0.05833333       Max   : 1000000.       
CPLEX> CPXPARAM_Parallel                                -1
CPXPARAM_Simplex_Tolerances_Feasibility          0.01
CPXPARAM_DetTimeLimit                            75000
CPXPARAM_MIP_Tolerances_MIPGap                   0.01
CPXPARAM_MIP_Tolerances_Integrality              1.0000000000000001e-09
Warning:  No solution found from 1 MIP starts.
Retaining values of one MIP start for possible repair.
Tried aggregator 3 times.
MIP Presolve eliminated 88605 rows and 19651 columns.
MIP Presolve added 3379 rows and 0 columns.
MIP Presolve modified 24835 coefficients.
Aggregator did 12995 substitutions.
Reduced MIP has 24984 rows, 21325 columns, and 71275 nonzeros.
Reduced MIP has 8433 binaries, 0 generals, 0 SOSs, and 0 indicators.
Presolve time = 0.30 sec. (173.99 ticks)
Probing fixed 393 vars, tightened 2866 bounds.
Probing time = 1.22 sec. (897.95 ticks)
Tried aggregator 2 times.
MIP Presolve eliminated 891 rows and 790 columns.
MIP Presolve modified 2209 coefficients.
Aggregator did 42 substitutions.
Reduced MIP has 24051 rows, 20493 columns, and 68577 nonzeros.
Reduced MIP has 8038 binaries, 0 generals, 0 SOSs, and 0 indicators.
Presolve time = 0.11 sec. (66.93 ticks)
Probing fixed 0 vars, tightened 2 bounds.
Probing time = 0.05 sec. (26.64 ticks)
Clique table members: 6673.
MIP emphasis: balance optimality and feasibility.
MIP search method: dynamic search.
Parallel mode: opportunistic, using up to 32 threads.
Root relaxation solution time = 0.36 sec. (276.27 ticks)

        Nodes                                         Cuts/
   Node  Left     Objective  IInf  Best Integer    Best Bound    ItCnt     Gap

      0     0    95136.3871  1643                  95136.3871     6123         
      0     0    93105.2295   711                   Cuts: 672     6468         
      0     0    92624.0541   604                   Cuts: 317     6623         
      0     0    92563.4430   511                   Cuts: 232     6718         
      0     0    92532.7625   499                    Cuts: 98     6769         
      0     0    92532.7625   455                    Cuts: 89     6817         
      0     0    92532.7625   435                    Cuts: 55     6839         
      0     0    92532.7625   424                    Cuts: 60     6857         
      0     0    92532.7625   411                    Cuts: 45     6873         
      0     0    92532.7625   407                    Cuts: 24     6877         
      0     0    92532.7625   405                    Cuts: 25     6885         
Repair heuristic found nothing.
      0    14    infeasible                          Cuts: 10     7224         
Elapsed time = 11.13 sec. (6803.84 ticks, tree = 0.02 MB, solutions = 0)
    295    64    infeasible                        68429.0197    10364         
    749   344    24594.7133   315                  68429.0197    21657         
   1446   617    15507.8203   293                  68429.0197    26070         
   2288   871    10691.9957   269                  68429.0197    29410         
   3491  1401   -18743.7798   250                  68429.0197    32450         
   4793  2883   -18743.7798   247                  68429.0197    35215         
   5945  3451     3341.2770   252                  68429.0197    35260         
   7046  4801     3644.7470   271                  68429.0197    35340         
*  8091+ 2900                        10643.3989    68429.0197           542.92%

Clique cuts applied:  2
Cover cuts applied:  6
Implied bound cuts applied:  8
Flow cuts applied:  438
Mixed integer rounding cuts applied:  57
Gomory fractional cuts applied:  22

Root node processing (before b&c):
  Real time             =   10.03 sec. (6794.10 ticks)
Parallel b&c, 32 threads:
  Real time             =   17.11 sec. (4389.32 ticks)
  Sync time (average)   =    1.07 sec.
  Wait time (average)   =    0.00 sec.
                          ------------
Total (root+branch&cut) =   27.14 sec. (11183.42 ticks)

Solution pool: 2 solutions saved.

MIP - Integer optimal solution:  Objective =  1.0643398913e+04
Solution time =   27.17 sec.  Iterations = 45713  Nodes = 9010
Deterministic time = 11183.58 ticks  (411.60 ticks/sec)

CPLEX> Incumbent solution written to file 'C:\Users\llavin\Desktop\test919\logs\tmpgp2v5m7r.cplex.sol'.
CPLEX> Exporting results... 
